c Path planning problem for ProbSAT
c Generated by gen_cnf.py
p cnf 12 15
1 2 3 0
4 5 6 0
7 8 9 0
10 11 12 0
-1 4 5 0
-2 5 4 6 0
-3 6 5 0
-4 7 8 0
-5 8 7 9 0
-6 9 8 0
-7 10 11 0
-8 11 10 12 0
-9 12 11 0
1 0
12 0
